K-points G-X
40 !  intersections
Line-mode
reciprocal
 0       0       0      ! gamma
 0.5     0       0.0    ! X
 
 0.5     0       0.0    ! X
 0.5     0.25    0.0    ! W
 
 0.5     0.25    0.0    ! W
 0.375   0.375   0      ! K
 
 0.375   0.375   0      ! K
 0       0       0      ! gamma 
 
 0       0       0      ! gamma
 0.25    0.25    0.25   ! L
 
 0.25    0.25    0.25   ! L
 0.5     0.25    0.0    ! W
 
 0.5     0.25    0.0    ! W
 0.5     0.125   0.125  ! U
 
 0.5     0.125   0.125  ! U
 0.5     0       0      ! X
